(set-logic QF_S)
(declare-fun var0 () Int)
(declare-fun var1 () Int)
(declare-fun var2 () String)
(declare-fun var3 () Int)
(declare-fun var4 () String)
(declare-fun var5 () Int)
(declare-fun var6 () String)
(declare-fun var7 () String)
(assert (not (<= var0 var1)))
(assert (str.suffixof (str.substr var2 var3 var3) (str.substr var4 var5 var5)))
(assert (str.suffixof (str.substr var6 var5 85) (str.substr var7 var3 var0)))
(assert (str.prefixof (str.substr var2 var3 22) (str.substr var2 var1 var1)))
(check-sat)